cases/matpower/case3_oltc_pst.m
ipopt
ACP
[info | PowerModels]: extending matpower format with data: branch_oltc_pst 3x5
[warn | PowerModels]: added zero cost function data for dclines
[info | PowerModels]: extending matpower format by appending matrix "branch_oltc_pst" in to "branch"
[warn | PowerModels]: no reference bus found
[warn | PowerModels]: no reference bus found, setting bus 1 as reference based on generator 1
[info | PowerModels]: removing 3 cost terms from generator 3: Float64[]
[info | PowerModels]: removing 3 cost terms from dcline 1: Float64[]

******************************************************************************
This program contains Ipopt, a library for large-scale nonlinear optimization.
 Ipopt is released as open source code under the Eclipse Public License (EPL).
         For more information visit http://projects.coin-or.org/Ipopt
******************************************************************************

This is Ipopt version 3.13.2, running with linear solver mumps.
NOTE: Other linear solvers might be more efficient (see Ipopt documentation).

Number of nonzeros in equality constraint Jacobian...:       84
Number of nonzeros in inequality constraint Jacobian.:       24
Number of nonzeros in Lagrangian Hessian.............:      134

Total number of variables............................:       27
                     variables with only lower bounds:        0
                variables with lower and upper bounds:       24
                     variables with only upper bounds:        0
Total number of equality constraints.................:       20
Total number of inequality constraints...............:       12
        inequality constraints with only lower bounds:        3
   inequality constraints with lower and upper bounds:        0
        inequality constraints with only upper bounds:        9

iter    objective    inf_pr   inf_du lg(mu)  ||d||  lg(rg) alpha_du alpha_pr  ls
   0  6.3949934e+00 1.20e+00 2.46e+01  -1.0 0.00e+00    -  0.00e+00 0.00e+00   0
   1  3.5392005e+03 2.74e-01 1.36e+02  -1.0 1.80e+00    -  5.79e-03 7.72e-01h  1
   2  4.6813841e+03 1.21e-01 6.01e+01  -1.0 4.78e-01    -  6.57e-01 5.59e-01h  1
   3  4.8319274e+03 1.02e-01 9.41e+01  -1.0 2.04e-01    -  8.75e-01 1.53e-01h  1
   4  5.1269004e+03 8.89e-02 6.36e+01  -1.0 2.32e-01    -  3.53e-01 3.36e-01h  1
   5  5.4332493e+03 4.62e-02 4.86e+01  -1.0 2.75e-01    -  2.33e-01 4.93e-01h  1
   6  5.5623473e+03 3.18e-02 2.06e+01  -1.0 1.79e-01    -  4.78e-01 3.78e-01h  1
   7  5.5667438e+03 3.12e-02 6.48e+01  -1.0 1.29e-01    -  8.58e-02 1.98e-02h  1
   8  5.6317393e+03 2.23e-02 4.71e+01  -1.0 1.64e-01    -  2.82e-01 2.79e-01h  1
   9  5.7560247e+03 7.24e-03 5.62e+01  -1.0 1.20e-01    -  4.07e-01 6.63e-01h  1
iter    objective    inf_pr   inf_du lg(mu)  ||d||  lg(rg) alpha_du alpha_pr  ls
  10  5.8081505e+03 1.21e-03 8.73e+00  -1.0 8.61e-02    -  9.93e-01 8.10e-01h  1
  11  5.8230740e+03 1.59e-05 8.60e-02  -1.0 2.40e-02    -  1.00e+00 1.00e+00h  1
  12  5.8202645e+03 1.04e-05 1.58e-02  -2.5 4.73e-03    -  1.00e+00 1.00e+00f  1
  13  5.8200994e+03 1.27e-07 9.25e-05  -3.8 5.52e-04    -  1.00e+00 1.00e+00f  1
  14  5.8200944e+03 5.66e-11 6.58e-08  -5.7 1.09e-05    -  1.00e+00 1.00e+00h  1
  15  5.8200944e+03 4.26e-15 6.25e-12  -8.6 1.71e-07    -  1.00e+00 1.00e+00h  1

Number of Iterations....: 15

                                   (scaled)                 (unscaled)
Objective...............:   1.1640188737559017e+03    5.8200943687795079e+03
Dual infeasibility......:   6.2540022112011058e-12    3.1270011056005529e-11
Constraint violation....:   4.2604808569990382e-15    4.2604808569990382e-15
Complementarity.........:   2.5094235674607964e-09    1.2547117837303982e-08
Overall NLP error.......:   2.5094235674607964e-09    1.2547117837303982e-08


Number of objective function evaluations             = 16
Number of objective gradient evaluations             = 16
Number of equality constraint evaluations            = 16
Number of inequality constraint evaluations          = 16
Number of equality constraint Jacobian evaluations   = 16
Number of inequality constraint Jacobian evaluations = 16
Number of Lagrangian Hessian evaluations             = 15
Total CPU secs in IPOPT (w/o function evaluations)   =      1.241
Total CPU secs in NLP function evaluations           =      2.255

EXIT: Optimal Solution Found.
Time to Solution........:4.229224920272827
